\ENCODING=ISO-8859-1
\Problem name: MDNV1

Minimize
 obj: - 9 x3 - 8 x4 - 7 x5
Subject To
 c_u_x7_:   x3 <= 0
 c_u_x8_:   x4 + 2 x5 <= 0
 c_u_x9_:  x3 <= 0.249051
 c_u_x10_: x4 <= 0.249051
 c_u_x11_: x5 <= 0.249051
End
